6 2
3363 6524 9178 6127 4960 3455
0 4071 5944 8606 1333 7774 2965
9720 0 869 9792 1681 6861 4765
4800 4523 0 2061 3501 8414 5821
2000 2418 8338 0 9204 6614 2061
8100 5371 7849 4671 0 4135 5176
7550 3556 1542 5667 9099 0 7706
2838 815 7698 7884 2940 7702 0